<?xml version = "1.0" standalone="yes"?>
<!-- This file has been generated by DOcplex version 2.23.222  -->
<CPLEXSolution version="1.0">
 <header
   problemName="CVRP"
   objectiveValue="15712.6"
  />
 <variables>
  <variable name="x_0_1" index="0" value="1.00000"/>
  <variable name="x_0_3" index="2" value="1.00000"/>
  <variable name="x_0_4" index="3" value="1.00000"/>
  <variable name="x_0_5" index="4" value="1.00000"/>
  <variable name="x_0_6" index="5" value="1.00000"/>
  <variable name="x_0_7" index="6" value="1.00000"/>
  <variable name="x_0_9" index="8" value="1.00000"/>
  <variable name="x_0_12" index="11" value="1.00000"/>
  <variable name="x_0_13" index="12" value="1.00000"/>
  <variable name="x_0_15" index="14" value="1.00000"/>
  <variable name="x_0_17" index="16" value="1.00000"/>
  <variable name="x_0_18" index="17" value="1.00000"/>
  <variable name="x_0_19" index="18" value="1.00000"/>
  <variable name="x_0_20" index="19" value="1.00000"/>
  <variable name="x_0_24" index="23" value="1.00000"/>
  <variable name="x_0_26" index="25" value="1.00000"/>
  <variable name="x_0_27" index="26" value="1.00000"/>
  <variable name="x_1_0" index="27" value="1.00000"/>
  <variable name="x_2_0" index="54" value="1.00000"/>
  <variable name="x_3_0" index="81" value="1.00000"/>
  <variable name="x_4_0" index="108" value="1.00000"/>
  <variable name="x_5_0" index="135" value="1.00000"/>
  <variable name="x_6_0" index="162" value="1.00000"/>
  <variable name="x_7_0" index="189" value="1.00000"/>
  <variable name="x_8_0" index="216" value="1.00000"/>
  <variable name="x_9_2" index="245" value="1.00000"/>
  <variable name="x_10_0" index="270" value="1.00000"/>
  <variable name="x_11_25" index="321" value="1.00000"/>
  <variable name="x_12_0" index="324" value="1.00000"/>
  <variable name="x_13_22" index="372" value="1.00000"/>
  <variable name="x_14_10" index="388" value="1.00000"/>
  <variable name="x_15_11" index="416" value="1.00000"/>
  <variable name="x_16_0" index="432" value="1.00000"/>
  <variable name="x_17_16" index="475" value="1.00000"/>
  <variable name="x_18_0" index="486" value="1.00000"/>
  <variable name="x_19_21" index="533" value="1.00000"/>
  <variable name="x_20_8" index="548" value="1.00000"/>
  <variable name="x_21_0" index="567" value="1.00000"/>
  <variable name="x_22_0" index="594" value="1.00000"/>
  <variable name="x_23_0" index="621" value="1.00000"/>
  <variable name="x_24_0" index="648" value="1.00000"/>
  <variable name="x_25_0" index="675" value="1.00000"/>
  <variable name="x_26_23" index="725" value="1.00000"/>
  <variable name="x_27_14" index="743" value="1.00000"/>
  <variable name="u_1" index="756" value="60.00000"/>
  <variable name="u_2" index="757" value="60.00000"/>
  <variable name="u_3" index="758" value="60.00000"/>
  <variable name="u_4" index="759" value="58.00000"/>
  <variable name="u_5" index="760" value="47.00000"/>
  <variable name="u_6" index="761" value="60.00000"/>
  <variable name="u_7" index="762" value="55.00000"/>
  <variable name="u_8" index="763" value="55.00000"/>
  <variable name="u_9" index="764" value="13.00000"/>
  <variable name="u_10" index="765" value="60.00000"/>
  <variable name="u_11" index="766" value="44.00000"/>
  <variable name="u_12" index="767" value="60.00000"/>
  <variable name="u_13" index="768" value="24.00000"/>
  <variable name="u_14" index="769" value="43.00000"/>
  <variable name="u_15" index="770" value="41.00000"/>
  <variable name="u_16" index="771" value="60.00000"/>
  <variable name="u_17" index="772" value="26.00000"/>
  <variable name="u_18" index="773" value="60.00000"/>
  <variable name="u_19" index="774" value="49.00000"/>
  <variable name="u_20" index="775" value="23.00000"/>
  <variable name="u_21" index="776" value="58.00000"/>
  <variable name="u_22" index="777" value="60.00000"/>
  <variable name="u_23" index="778" value="60.00000"/>
  <variable name="u_24" index="779" value="47.00000"/>
  <variable name="u_25" index="780" value="60.00000"/>
  <variable name="u_26" index="781" value="41.00000"/>
  <variable name="u_27" index="782" value="8.00000"/>
 </variables>
</CPLEXSolution>
